c SaDiCaL SAT Solver
c Copyright (C) 2018 by Armin Biere JKU
c
c Version 00n 481e664a7ffa9a307d3a0dad517daf5dde1989ef
c Compiler Apple clang version 15.0.0 (clang-1500.3.9.4)
c Options gcc -Wall -O3 -DNDEBUG -DNLOG
c proof path 'tests/full6.prf'
c
c all options have default values
c
c parsing 'tests/full6.cnf'
c found 'p cnf 6 64' header
c parsed DIMACS in 0.00 seconds
c 
c
c   time      reduced redundant irredundant
c       space  restarts  glue    variables
c           level conflicts  size remaining
c
c s 0.00 0.0 0.0 0 0 33 0 1.0 1.0 32 5 83%
c s 0.00 0.0 0.0 0 0 50 0 1.0 1.0 16 4 67%
c s 0.00 0.0 0.0 0 0 59 0 1.0 1.0 8 3 50%
c s 0.00 0.0 0.0 0 0 64 0 1.0 1.0 4 2 33%
c 0 0.00 0.0 0.0 0 0 66 0 1.0 1.0 4 0 0%
c
s UNSATISFIABLE
c
c simplifications:             4          16  conflicts/simplification  100%
c reductions:                  0           0  conflicts/reduction       100%
c restarts:                    0           0  conflicts/restart         100%
c conflicts:                  66       39216  conflicts/sec             100%
c decisions:                   5        2971  decisions/sec             100%
c propagations:               70         0.0  millions/sec               95%
c
c pure:                        0           0% of look-aheads
c look-ahead:                  5         100% of outer decisions        100%
c pruned:                      4           6% of outer conflicts          6%
c generated reducts:           4         100% satisfiable
c average size:                0           0% of all clauses
c pruning failed:              0           0% per reduct
c filter checks:              60         100% of outer satisfied clauses
c average filtered:         15.0         100% per reduct
c assumed literals:          256         4.3  per filter check
c
c collected clauses:        0.00 MB       96% of allocated clauses      100%
c allocated clauses:        0.00 MB       21% of allocated memory       100%
c maximum heap:             0.01 MB        0% of resident set size       88%
c
c looking:                  0.00 sec       0% of process time
c filtering:                0.00 sec       1% of process time
c pruning:                  0.00 sec       2% of process time
c simplifying:              0.00 sec       1% of process time
c
c resident set size:     1024.00 MB
c total process time:       0.00 sec
